VACCINE = Vaccine(1..2);
m = 24;
age = [BABY, YOUTH, ANCIENT, ADULT, BABY, YOUTH, CHILD, YOUTH, BABY, ANCIENT, YOUTH, ADULT, ADULT, YOUTH, ADULT, CHILD, SENIOR, SENIOR, YOUTH, SENIOR, YOUTH, AGED, BABY, AGED];
gender = [MALE, MALE, OTHER, FEMALE, MALE, FEMALE, OTHER, FEMALE, OTHER, FEMALE, OTHER, MALE, MALE, OTHER, MALE, FEMALE, OTHER, OTHER, FEMALE, OTHER, MALE, MALE, MALE, OTHER];
health = [POOR, GOOD, COMPROMISED, POOR, POOR, POOR, COMPROMISED, COMPROMISED, POOR, POOR, POOR, COMPROMISED, POOR, COMPROMISED, GOOD, POOR, GOOD, COMPROMISED, GOOD, GOOD, GOOD, COMPROMISED, GOOD, GOOD];
exposure = [LOW, EXTREME, LOW, AVERAGE, HIGH, EXTREME, LOW, HIGH, AVERAGE, LOW, HIGH, EXTREME, AVERAGE, LOW, AVERAGE, HIGH, AVERAGE, EXTREME, HIGH, EXTREME, AVERAGE, HIGH, AVERAGE, AVERAGE];
size = [7, 7, 8, 9, 10, 8, 7, 10, 7, 10, 8, 8, 7, 12, 9, 7, 10, 10, 12, 8, 10, 7, 9, 12];
minsize = 7;
age_group_min = [1, 1, 1, 0, 0, 0, 0];
age_group_max = [17, 20, 14, 22, 22, 23, 16];
max_people_diff = 89;
max_share_vaccines = 2;
health_information = {6, 13, 22};
exposure_information = {17, 18, 20, 21};